24° run output:
{
    "Function": "kroB400.tsp",
    "Problem dimension": [
        385,
        393,
        279,
        184,
        374,
        137,
        229,
        116,
        325,
        179,
        391,
        48,
        303,
        250,
        348,
        364,
        106,
        218,
        258,
        87,
        388,
        387,
        11,
        1,
        147,
        35,
        333,
        12,
        5,
        167,
        65,
        294,
        88,
        235,
        142,
        168,
        3,
        257,
        191,
        22,
        125,
        187,
        29,
        394,
        283,
        96,
        293,
        78,
        297,
        220,
        268,
        185,
        316,
        124,
        289,
        15,
        159,
        174,
        253,
        57,
        114,
        196,
        169,
        148,
        56,
        362,
        79,
        217,
        332,
        242,
        284,
        162,
        216,
        120,
        296,
        212,
        350,
        209,
        91,
        18,
        77,
        173,
        345,
        245,
        370,
        215,
        285,
        86,
        63,
        32,
        234,
        33,
        172,
        309,
        156,
        113,
        45,
        207,
        233,
        248,
        237,
        40,
        311,
        105,
        153,
        390,
        353,
        339,
        130,
        214,
        60,
        398,
        19,
        180,
        368,
        347,
        305,
        122,
        141,
        324,
        38,
        376,
        386,
        190,
        24,
        244,
        188,
        224,
        243,
        240,
        140,
        246,
        254,
        340,
        358,
        357,
        92,
        44,
        23,
        43,
        371,
        50,
        205,
        30,
        260,
        384,
        59,
        221,
        263,
        288,
        198,
        301,
        197,
        241,
        73,
        64,
        320,
        95,
        380,
        366,
        152,
        359,
        269,
        52,
        160,
        211,
        287,
        133,
        112,
        61,
        126,
        71,
        286,
        134,
        360,
        194,
        331,
        349,
        231,
        31,
        75,
        354,
        204,
        46,
        379,
        306,
        338,
        183,
        365,
        115,
        262,
        337,
        210,
        2,
        28,
        158,
        330,
        264,
        146,
        131,
        277,
        225,
        119,
        154,
        14,
        351,
        94,
        310,
        335,
        200,
        155,
        127,
        182,
        202,
        396,
        343,
        51,
        322,
        290,
        341,
        397,
        129,
        17,
        261,
        7,
        282,
        295,
        93,
        58,
        298,
        382,
        49,
        367,
        163,
        195,
        344,
        89,
        239,
        255,
        315,
        101,
        319,
        55,
        100,
        259,
        247,
        110,
        39,
        189,
        118,
        219,
        228,
        164,
        0,
        20,
        107,
        128,
        27,
        329,
        342,
        166,
        323,
        346,
        37,
        151,
        85,
        352,
        42,
        76,
        170,
        356,
        34,
        121,
        84,
        378,
        230,
        373,
        227,
        66,
        308,
        307,
        54,
        161,
        16,
        232,
        266,
        222,
        135,
        327,
        10,
        336,
        145,
        313,
        312,
        355,
        123,
        4,
        68,
        177,
        361,
        252,
        272,
        143,
        136,
        117,
        276,
        132,
        144,
        213,
        201,
        203,
        139,
        6,
        372,
        83,
        41,
        199,
        150,
        399,
        175,
        208,
        300,
        97,
        90,
        280,
        271,
        318,
        9,
        72,
        25,
        389,
        157,
        281,
        70,
        149,
        80,
        67,
        392,
        21,
        314,
        383,
        99,
        273,
        74,
        193,
        251,
        36,
        8,
        176,
        178,
        292,
        302,
        326,
        82,
        267,
        236,
        108,
        265,
        238,
        53,
        109,
        62,
        317,
        102,
        270,
        81,
        13,
        103,
        192,
        381,
        363,
        278,
        26,
        274,
        47,
        226,
        291,
        321,
        369,
        171,
        111,
        206,
        395,
        377,
        256,
        69,
        334,
        181,
        104,
        186,
        249,
        98,
        299,
        223,
        304,
        375,
        138,
        275,
        165,
        328
    ],
    "Global Optimum": 0,
    "Algorithm": "Genetic algorithm",
    "Parameters": {
        "population": 30,
        "offspring": 30,
        "mutation probability": 0.0025,
        "crossover probability": 0.9
    },
    "Fitness": 392062,
    "Solution": [
        385,
        393,
        279,
        184,
        374,
        137,
        229,
        116,
        325,
        179,
        391,
        48,
        303,
        250,
        348,
        364,
        106,
        218,
        258,
        87,
        388,
        387,
        11,
        1,
        147,
        35,
        333,
        12,
        5,
        167,
        65,
        294,
        88,
        235,
        142,
        168,
        3,
        257,
        191,
        22,
        125,
        187,
        29,
        394,
        283,
        96,
        293,
        78,
        297,
        220,
        268,
        185,
        316,
        124,
        289,
        15,
        159,
        174,
        253,
        57,
        114,
        196,
        169,
        148,
        56,
        362,
        79,
        217,
        332,
        242,
        284,
        162,
        216,
        120,
        296,
        212,
        350,
        209,
        91,
        18,
        77,
        173,
        345,
        245,
        370,
        215,
        285,
        86,
        63,
        32,
        234,
        33,
        172,
        309,
        156,
        113,
        45,
        207,
        233,
        248,
        237,
        40,
        311,
        105,
        153,
        390,
        353,
        339,
        130,
        214,
        60,
        398,
        19,
        180,
        368,
        347,
        305,
        122,
        141,
        324,
        38,
        376,
        386,
        190,
        24,
        244,
        188,
        224,
        243,
        240,
        140,
        246,
        254,
        340,
        358,
        357,
        92,
        44,
        23,
        43,
        371,
        50,
        205,
        30,
        260,
        384,
        59,
        221,
        263,
        288,
        198,
        301,
        197,
        241,
        73,
        64,
        320,
        95,
        380,
        366,
        152,
        359,
        269,
        52,
        160,
        211,
        287,
        133,
        112,
        61,
        126,
        71,
        286,
        134,
        360,
        194,
        331,
        349,
        231,
        31,
        75,
        354,
        204,
        46,
        379,
        306,
        338,
        183,
        365,
        115,
        262,
        337,
        210,
        2,
        28,
        158,
        330,
        264,
        146,
        131,
        277,
        225,
        119,
        154,
        14,
        351,
        94,
        310,
        335,
        200,
        155,
        127,
        182,
        202,
        396,
        343,
        51,
        322,
        290,
        341,
        397,
        129,
        17,
        261,
        7,
        282,
        295,
        93,
        58,
        298,
        382,
        49,
        367,
        163,
        195,
        344,
        89,
        239,
        255,
        315,
        101,
        319,
        55,
        100,
        259,
        247,
        110,
        39,
        189,
        118,
        219,
        228,
        164,
        0,
        20,
        107,
        128,
        27,
        329,
        342,
        166,
        323,
        346,
        37,
        151,
        85,
        352,
        42,
        76,
        170,
        356,
        34,
        121,
        84,
        378,
        230,
        373,
        227,
        66,
        308,
        307,
        54,
        161,
        16,
        232,
        266,
        222,
        135,
        327,
        10,
        336,
        145,
        313,
        312,
        355,
        123,
        4,
        68,
        177,
        361,
        252,
        272,
        143,
        136,
        117,
        276,
        132,
        144,
        213,
        201,
        203,
        139,
        6,
        372,
        83,
        41,
        199,
        150,
        399,
        175,
        208,
        300,
        97,
        90,
        280,
        271,
        318,
        9,
        72,
        25,
        389,
        157,
        281,
        70,
        149,
        80,
        67,
        392,
        21,
        314,
        383,
        99,
        273,
        74,
        193,
        251,
        36,
        8,
        176,
        178,
        292,
        302,
        326,
        82,
        267,
        236,
        108,
        265,
        238,
        53,
        109,
        62,
        317,
        102,
        270,
        81,
        13,
        103,
        192,
        381,
        363,
        278,
        26,
        274,
        47,
        226,
        291,
        321,
        369,
        171,
        111,
        206,
        395,
        377,
        256,
        69,
        334,
        181,
        104,
        186,
        249,
        98,
        299,
        223,
        304,
        375,
        138,
        275,
        165,
        328
    ],
    "Nb of functions evaluations": 400020,
    "Computational time in seconds": 972.2274329662323,
    "Stopping criterion in evaluations": 400000
}